50
2225

390 786
885 8
478 303
84 575
978 98
286 831
844 441
100 475
908 338
447 936
550 332
199 212
670 361
731 267
733 276
928 324
48 416
342 207
118 628
954 584
367 416
299 519
267 730
874 772
285 709
349 903
271 705
462 462
837 891
136 540
549 200
25 464
731 35
325 174
201 354
413 228
738 587
650 286
494 752
145 508
635 131
251 5
952 365
375 390
842 111
449 202
230 984
955 207
79 775
618 675
